100
1000
200
0 0
-34 15
-34 15
-34 15
-34 15
-34 15
-34 15
-34 15
-34 15
-34 15
-34 15
-34 15
-34 15
-34 15
-34 15
-34 15
-34 15
-34 15
-34 15
-34 15
-34 15
-6 15
-6 15
-6 15
-6 15
-6 15
-6 15
-6 15
-6 15
-6 15
-6 15
-6 15
-6 15
-6 15
-6 15
-6 15
-6 15
-6 15
-6 15
-6 15
-6 15
-24 1
-24 1
-24 1
-24 1
-24 1
-24 1
-24 1
-24 1
-24 1
-24 1
-24 1
-24 1
-24 1
-24 1
-24 1
-24 1
-24 1
-24 1
-24 1
-24 1
38 -13
38 -13
38 -13
38 -13
38 -13
38 -13
38 -13
38 -13
38 -13
38 -13
38 -13
38 -13
38 -13
38 -13
38 -13
38 -13
38 -13
38 -13
38 -13
38 -13
13 6
13 6
13 6
13 6
13 6
13 6
13 6
13 6
13 6
13 6
13 6
13 6
13 6
13 6
13 6
13 6
13 6
13 6
13 6
13 6
17 -11
20 -40
10 -15
-22 -28
-9 -9
-19 40
-6 34
1 -10
20 -1
-11 15
7 -22
33 -5
-1 37
7 -10
-8 -21
25 -23
-35 28
15 -40
26 -9
11 -13
17 -11
20 -40
10 -15
-22 -28
-9 -9
-19 40
-6 34
1 -10
20 -1
-11 15
7 -22
33 -5
-1 37
7 -10
-8 -21
25 -23
-35 28
15 -40
26 -9
11 -13
17 -11
20 -40
10 -15
-22 -28
-9 -9
-19 40
-6 34
1 -10
20 -1
-11 15
7 -22
33 -5
-1 37
7 -10
-8 -21
25 -23
-35 28
15 -40
26 -9
11 -13
17 -11
20 -40
10 -15
-22 -28
-9 -9
-19 40
-6 34
1 -10
20 -1
-11 15
7 -22
33 -5
-1 37
7 -10
-8 -21
25 -23
-35 28
15 -40
26 -9
11 -13
17 -11
20 -40
10 -15
-22 -28
-9 -9
-19 40
-6 34
1 -10
20 -1
-11 15
7 -22
33 -5
-1 37
7 -10
-8 -21
25 -23
-35 28
15 -40
26 -9
11 -13
0 0 
51
56
55
59
52
52
53
54
54
57
55
55
57
53
56
56
51
59
52
54
57
56
51
57
59
57
56
57
57
54
56
54
56
55
53
53
53
53
56
59
53
52
52
57
56
55
56
53
54
55
53
54
55
53
59
56
57
55
56
56
56
56
52
54
56
55
56
59
54
54
54
56
55
51
57
60
56
56
52
59
57
56
52
51
52
56
59
54
55
56
57
59
59
60
53
57
51
52
59
59
51
56
55
59
52
52
53
54
54
57
55
55
57
53
56
56
51
59
52
54
57
56
51
57
59
57
56
57
57
54
56
54
56
55
53
53
53
53
56
59
53
52
52
57
56
55
56
53
54
55
53
54
55
53
59
56
57
55
56
56
56
56
52
54
56
55
56
59
54
54
54
56
55
51
57
60
56
56
52
59
57
56
52
51
52
56
59
54
55
56
57
59
59
60
53
57
51
52
59
59
